c preprocessed version of celar11, 48 vertices, 264 edges
p td 48 264
1 0
2 0
12 0
7 0
0 42
0 10
0 11
18 0
13 0
6 0
39 0
2 1
12 1
1 22
1 28
21 1
26 1
25 1
6 1
2 3
2 12
23 2
2 28
2 31
2 22
15 2
16 2
14 2
17 2
24 2
25 2
27 2
13 2
6 2
4 3
15 3
16 3
14 3
17 3
13 3
5 4
38 4
6 5
20 5
5 34
40 5
38 5
6 7
6 8
6 9
6 15
6 16
6 17
6 18
6 13
6 21
6 12
6 10
6 11
6 22
6 24
6 29
6 28
6 30
6 31
6 27
6 20
6 19
6 41
6 40
7 8
7 9
7 28
7 31
7 29
7 30
7 11
13 7
41 7
20 7
8 9
40 8
19 8
41 8
10 9
9 11
10 11
20 10
12 11
23 11
26 11
27 11
13 12
21 12
12 22
26 12
25 12
20 12
13 14
13 15
13 16
13 21
13 23
13 22
25 13
13 24
13 29
13 28
13 30
13 42
13 27
14 15
14 16
14 18
14 17
15 16
17 15
19 15
20 15
37 15
17 16
19 16
20 16
37 16
17 18
19 20
19 35
19 33
40 19
19 41
20 21
20 22
20 30
20 31
20 42
40 20
41 20
39 20
21 22
21 26
24 21
25 21
41 21
32 21
36 21
23 22
26 22
24 22
25 22
27 22
24 23
25 23
27 23
24 25
24 29
24 27
25 26
25 27
27 26
32 26
36 26
27 28
27 31
28 29
30 28
28 31
30 29
31 29
30 31
32 33
32 36
32 38
32 37
39 32
34 33
33 35
39 33
34 35
40 34
36 35
39 35
36 37
36 38
39 36
37 38
39 37
39 38
40 41
41 42
43 0
43 2
43 45
43 7
43 9
43 44
43 6
43 13
43 12
43 46
43 28
43 31
43 30
43 47
43 29
44 0
44 1
44 2
44 45
44 7
44 9
44 14
44 21
44 12
44 46
44 10
44 11
44 28
44 31
44 30
44 18
44 17
44 13
44 6
44 20
45 0
45 1
45 2
45 4
45 7
45 12
45 9
45 11
45 10
45 46
45 23
45 47
45 22
45 30
45 28
45 31
45 29
45 21
45 26
45 27
45 6
46 47
46 0
46 1
46 7
46 9
46 6
46 10
46 11
46 24
46 27
47 44
47 2
47 7
47 6
47 13
47 29
47 28
47 30
47 31
